xxxx  bulk SC 
4.21000
  1.0 0.0 0.0
  0.0 1.0 0.0
  0.0 0.0 1.0
 XX
 1
Direct
 0.00000000 0.00000000 0.00000000
